p wcnf 153 306 307 
1 28 -80 0 
1 -37 -27 0 
1 -98 60 0 
1 -63 -124 0 
1 26 -67 0 
1 -82 54 0 
1 -85 -2 0 
1 111 -2 0 
1 110 -26 0 
1 149 -36 0 
1 48 16 0 
1 74 -120 0 
1 48 72 0 
1 -43 14 0 
1 59 9 0 
1 -152 144 0 
1 -98 86 0 
1 118 21 0 
1 16 -7 0 
1 -143 -46 0 
1 55 -5 0 
1 -11 -29 0 
1 -105 -144 0 
1 24 -130 0 
1 130 15 0 
1 76 28 0 
1 -3 -46 0 
1 -121 -84 0 
1 18 131 0 
1 -124 -91 0 
1 -115 87 0 
1 -126 -99 0 
1 151 -107 0 
1 -127 18 0 
1 -38 114 0 
1 78 32 0 
1 -32 35 0 
1 -131 -13 0 
1 -61 41 0 
1 40 31 0 
1 -29 -146 0 
1 59 -121 0 
1 112 -52 0 
1 -108 -90 0 
1 -62 -35 0 
1 -121 39 0 
1 -20 -99 0 
1 -91 139 0 
1 -1 -11 0 
1 -45 -55 0 
1 140 -85 0 
1 87 -134 0 
1 57 27 0 
1 -10 137 0 
1 -43 12 0 
1 80 47 0 
1 109 -145 0 
1 26 -25 0 
1 96 -15 0 
1 58 -21 0 
1 -62 -146 0 
1 -122 139 0 
1 65 -94 0 
1 93 27 0 
1 -54 8 0 
1 -82 -86 0 
1 -91 116 0 
1 86 -52 0 
1 5 -147 0 
1 119 -144 0 
1 2 70 0 
1 -133 -11 0 
1 -75 88 0 
1 -139 107 0 
1 119 104 0 
1 105 101 0 
1 -130 12 0 
1 68 50 0 
1 -80 92 0 
1 106 -137 0 
1 112 -44 0 
1 -109 -85 0 
1 -130 138 0 
1 -58 18 0 
1 58 -1 0 
1 31 -54 0 
1 -27 -68 0 
1 -129 90 0 
1 30 -152 0 
1 -132 -121 0 
1 150 -79 0 
1 -19 28 0 
1 106 43 0 
1 -96 138 0 
1 107 68 0 
1 54 32 0 
1 -140 57 0 
1 17 -90 0 
1 8 -29 0 
1 -142 -37 0 
1 40 92 0 
1 49 -31 0 
1 -103 -114 0 
1 23 -15 0 
1 20 134 0 
1 104 -38 0 
1 82 -96 0 
1 26 -141 0 
1 -97 -21 0 
1 -88 -68 0 
1 48 153 0 
1 17 -109 0 
1 121 122 0 
1 -21 -126 0 
1 153 -146 0 
1 -76 95 0 
1 22 144 0 
1 147 73 0 
1 -103 -131 0 
1 12 121 0 
1 137 29 0 
1 72 88 0 
1 103 -108 0 
1 148 -64 0 
1 -42 92 0 
1 54 49 0 
1 117 153 0 
1 72 80 0 
1 18 96 0 
1 -37 107 0 
1 -20 142 0 
1 100 137 0 
1 144 138 0 
1 -96 -55 0 
1 3 -68 0 
1 -18 -5 0 
1 126 -134 0 
1 -97 57 0 
1 -74 -8 0 
1 56 86 0 
1 128 78 0 
1 -132 28 0 
1 -137 -117 0 
1 87 -55 0 
1 -119 95 0 
1 -13 -6 0 
1 -137 112 0 
1 -34 8 0 
1 13 7 0 
1 43 -108 0 
1 47 3 0 
1 -110 -100 0 
1 -99 106 0 
1 94 -146 0 
1 -114 -101 0 
1 -37 143 0 
1 -81 -55 0 
1 3 151 0 
1 150 -51 0 
1 10 -36 0 
1 -150 149 0 
1 43 -86 0 
1 -15 -39 0 
1 -100 32 0 
1 -56 -7 0 
1 32 120 0 
1 104 -123 0 
1 152 8 0 
1 131 -83 0 
1 -6 -4 0 
1 -10 82 0 
1 -124 -35 0 
1 64 -139 0 
1 150 13 0 
1 -36 19 0 
1 84 4 0 
1 -110 -74 0 
1 88 -49 0 
1 88 123 0 
1 -4 -126 0 
1 17 138 0 
1 -128 -84 0 
1 44 -36 0 
1 112 -14 0 
1 -117 107 0 
1 148 21 0 
1 7 -18 0 
1 20 -84 0 
1 -99 -104 0 
1 71 123 0 
1 35 -110 0 
1 104 -67 0 
1 102 -61 0 
1 1 -29 0 
1 82 -74 0 
1 -88 -43 0 
1 80 105 0 
1 -145 90 0 
1 65 -104 0 
1 134 -113 0 
1 47 -120 0 
1 -10 33 0 
1 28 -146 0 
1 106 -54 0 
1 81 75 0 
1 18 108 0 
1 -97 75 0 
1 10 2 0 
1 120 -6 0 
1 -20 -72 0 
1 148 7 0 
1 -40 -85 0 
1 -38 -130 0 
1 84 -39 0 
1 83 51 0 
1 132 -144 0 
1 64 -25 0 
1 -121 -47 0 
1 -104 -153 0 
1 -26 -39 0 
1 -47 35 0 
1 -31 -101 0 
1 -108 94 0 
1 122 -49 0 
1 27 -50 0 
1 125 -22 0 
1 5 -6 0 
1 41 141 0 
1 20 87 0 
1 113 -80 0 
1 82 -13 0 
1 82 19 0 
1 61 -13 0 
1 112 -69 0 
1 -148 41 0 
1 16 -135 0 
1 -58 -63 0 
1 74 -131 0 
1 -14 -146 0 
1 147 -90 0 
1 67 -108 0 
1 34 109 0 
1 -13 117 0 
1 -141 -140 0 
1 42 -97 0 
1 10 133 0 
1 -104 53 0 
1 36 139 0 
1 -16 -139 0 
1 -117 81 0 
1 -23 -30 0 
1 74 -99 0 
1 132 67 0 
1 -146 -59 0 
1 149 -97 0 
1 111 -23 0 
1 106 -83 0 
1 -123 -70 0 
1 -26 -148 0 
1 99 17 0 
1 -47 -66 0 
1 72 -149 0 
1 139 59 0 
1 117 -149 0 
1 34 83 0 
1 -18 -69 0 
1 36 -115 0 
1 -110 37 0 
1 -55 -72 0 
1 -24 -94 0 
1 -55 -110 0 
1 18 -98 0 
1 121 101 0 
1 36 146 0 
1 -50 -2 0 
1 116 128 0 
1 147 132 0 
1 94 23 0 
1 -83 77 0 
1 -136 -57 0 
1 94 -69 0 
1 71 -91 0 
1 -78 -121 0 
1 28 -61 0 
1 -123 28 0 
1 62 -91 0 
1 32 -14 0 
1 -125 -122 0 
1 -11 -79 0 
1 -102 -25 0 
1 117 85 0 
1 85 -27 0 
1 48 17 0 
1 132 88 0 
1 -82 -74 0 
1 -74 120 0 
1 -37 13 0 
1 -32 140 0 
1 -127 123 0 
1 33 150 0 
1 -77 -19 0 
1 -71 69 0 
1 -110 86 0 
1 -143 -122 0 
1 -129 95 0 
1 -7 -42 0 
